solution status: optimal solution found
objective value:                                   12
shell_j_$_63                                        1 	(obj:0)
shell_j_$_60                                        1 	(obj:0)
shell_j_$_142                                       1 	(obj:0)
shell_j_$_59                                        1 	(obj:0)
shell_j_$_99                                        1 	(obj:0)
shell_j_$_67                                        1 	(obj:0)
shell_j_$_91                                        1 	(obj:0)
shell_j_$_121                                       1 	(obj:0)
shell_j_$_53                                        1 	(obj:0)
shell_j_$_61                                        1 	(obj:0)
shell_j_$_122                                       1 	(obj:0)
shell_j_$_144                                       1 	(obj:0)
shell_j_$_68                                        1 	(obj:0)
shell_j_$_95                                        1 	(obj:0)
shell_j_$_87                                        1 	(obj:0)
shell_i_$_149                                       1 	(obj:0)
shell_j_$_58                                        1 	(obj:0)
shell_j_$_148                                       1 	(obj:0)
shell_j_$_43                                        1 	(obj:0)
shell_j_$_94                                        1 	(obj:0)
shell_j_$_98                                        1 	(obj:0)
shell_i_$_54                                        1 	(obj:0)
shell_j_$_83                                        1 	(obj:0)
shell_j_$_146                                       1 	(obj:0)
shell_j_$_141                                       1 	(obj:0)
shell_j_$_150                                       1 	(obj:0)
shell_j_$_147                                       1 	(obj:0)
shell_i_$_123                                       1 	(obj:0)
shell_j_$_103                                       1 	(obj:0)
shell_j_$_96                                        1 	(obj:0)
shell_j_$_145                                       1 	(obj:0)
shell_j_$_85                                        1 	(obj:0)
$_67_x                                             -4 	(obj:0)
$_95_x                                             -6 	(obj:0)
$_95_y                                             12 	(obj:0)
$_95_z                                             16 	(obj:0)
$_67_y                                             12 	(obj:0)
$_67_z                                             10 	(obj:0)
$_87_x                                             -3 	(obj:0)
$_87_y                                             12 	(obj:0)
$_87_z                                             15 	(obj:0)
$_142_x                                           -10 	(obj:0)
$_142_y                                            12 	(obj:0)
$_149_x                                           -12 	(obj:0)
$_149_y                                             8 	(obj:0)
$_149_z                                            15 	(obj:0)
$_91_x                                             -8 	(obj:0)
$_91_y                                             12 	(obj:0)
$_58_y                                             12 	(obj:0)
$_58_z                                              9 	(obj:0)
$_91_z                                             12 	(obj:0)
$_142_z                                            20 	(obj:0)
$_148_x                                             1 	(obj:0)
$_148_y                                            12 	(obj:0)
$_148_z                                            13 	(obj:0)
$_63_y                                             12 	(obj:0)
$_121_x                                            -8 	(obj:0)
$_43_x                                             -5 	(obj:0)
$_43_y                                             12 	(obj:0)
$_43_z                                             14 	(obj:0)
$_121_y                                            12 	(obj:0)
$_121_z                                            16 	(obj:0)
$_94_x                                             -6 	(obj:0)
$_94_y                                             12 	(obj:0)
$_94_z                                             17 	(obj:0)
$_60_x                                             -7 	(obj:0)
$_98_x                                             -8 	(obj:0)
$_98_y                                             12 	(obj:0)
$_98_z                                             17 	(obj:0)
$_53_x                                             -6 	(obj:0)
$_53_y                                             12 	(obj:0)
$_54_x                                            -12 	(obj:0)
$_54_y                                              8 	(obj:0)
$_54_z                                             14 	(obj:0)
$_53_z                                             20 	(obj:0)
$_59_y                                             12 	(obj:0)
$_83_x                                             -8 	(obj:0)
$_83_y                                             12 	(obj:0)
$_83_z                                             14 	(obj:0)
$_59_z                                             19 	(obj:0)
$_61_x                                             -7 	(obj:0)
$_146_x                                            -4 	(obj:0)
$_146_y                                            12 	(obj:0)
$_146_z                                            15 	(obj:0)
$_61_y                                             12 	(obj:0)
$_61_z                                             12 	(obj:0)
$_141_x                                            -8 	(obj:0)
$_141_y                                            12 	(obj:0)
$_141_z                                            18 	(obj:0)
$_60_y                                             12 	(obj:0)
$_60_z                                             16 	(obj:0)
$_150_x                                            -8 	(obj:0)
$_150_y                                            12 	(obj:0)
$_150_z                                            15 	(obj:0)
$_122_x                                            -7 	(obj:0)
$_122_y                                            12 	(obj:0)
$_147_y                                            12 	(obj:0)
$_147_z                                            17 	(obj:0)
$_122_z                                            20 	(obj:0)
$_99_x                                             -6 	(obj:0)
$_123_x                                           -12 	(obj:0)
$_123_y                                             8 	(obj:0)
$_123_z                                            17 	(obj:0)
$_99_y                                             12 	(obj:0)
$_144_x                                            -3 	(obj:0)
$_103_x                                            -4 	(obj:0)
$_103_y                                            12 	(obj:0)
$_103_z                                            14 	(obj:0)
$_144_y                                            12 	(obj:0)
$_144_z                                            13 	(obj:0)
$_96_x                                             -6 	(obj:0)
$_96_y                                             12 	(obj:0)
$_96_z                                             19 	(obj:0)
$_99_z                                             15 	(obj:0)
$_63_z                                             16 	(obj:0)
$_145_x                                            -3 	(obj:0)
$_145_y                                            12 	(obj:0)
$_145_z                                            14 	(obj:0)
$_68_x                                             -4 	(obj:0)
$_68_y                                             12 	(obj:0)
$_85_x                                             -8 	(obj:0)
$_85_y                                             12 	(obj:0)
$_85_z                                             13 	(obj:0)
$_68_z                                             11 	(obj:0)
$_63_x                                             -5 	(obj:0)
x174                                                4 	(obj:1)
x209                                                2 	(obj:1)
x230                                                1 	(obj:1)
x232                                                1 	(obj:1)
x245                                                2 	(obj:1)
x281                                                1 	(obj:1)
x287                                                1 	(obj:1)
